units lj
atom_style atomic
boundary p p p
timestep 0.001

read_data fcc.atoms

mass 1 1.0

pair_style lj/cut 3.0
pair_coeff 1 1 1.0 1.0 3.0

neighbor 0.3 bin
neigh_modify every 20 delay 0 check no

#fix 1 all nve
fix 1 all nvt temp 1.5 1.5 0.1

dump id all atom 100 fcc.lammpstrj

thermo 500
restart 20000 test.restart   #20000stepまでをrestartファイルに書き込む
run 20000

